c A SAT instance generated from a 3-CNF formula that had 30 clauses and 8 variables
p cnf 8 30
-5 -6 8 0
-6 -1 7 0
-4 -7 3 0
-8 3 -4 0
1 -7 -8 0
3 -8 6 0
5 -3 2 0
6 1 -4 0
1 -5 -6 0
-4 -3 5 0
-3 -2 -6 0
6 -1 -3 0
8 -4 7 0
3 6 8 0
5 -8 7 0
-3 2 -8 0
-6 5 2 0
-3 -2 5 0
-2 -4 -6 0
-5 -3 2 0
-3 -8 1 0
-8 -5 -6 0
4 -7 5 0
-2 -4 -7 0
-3 7 -4 0
7 -1 -8 0
2 -8 1 0
1 5 8 0
-2 -1 -5 0
4 8 5 0
